#************************************************************************************
#*                   Generated by cif2cell 2.1.0 2026-04-30 9:44                    *
#*  T. Bjorkman, Comp. Phys. Commun. 182, 1183-1186 (2011). Please cite generously. *
#*                                                                                  *
#*                              Data obtained from COD                              *
#*                                    None   ()                                     *
#*             Failed to get author information, No journal information             *
#************************************************************************************
&CONTROL
  calculation='relax',
  outdir='./Outputs',
  prefix='tfanoh_isolated',
  pseudo_dir='./Pseudopotentials',
  verbosity='low',
  tprnfor=.true.,
  tstress=.true.,
  forc_conv_thr=7.7D-4,
  etot_conv_thr=7.3D-7
/
&SYSTEM
  ibrav = 1
  A = 15.0  ! Large box to isolate the ion
  nat = 7
  ntyp = 3
  tot_charge = -1.0
  assume_isolated = 'martyna-tuckerman'
  ecutwfc=60,
  ecutrho=480,
  input_dft='pbe',
  occupations='fixed',
  vdw_corr='grimme-d3'
/
&ELECTRONS
  conv_thr=1d-07,
  mixing_beta=0.3,
/
&IONS
  ion_dynamics='bfgs',
/
CELL_PARAMETERS {angstrom}
  15.00000000000000   0.000000000000000   0.000000000000000 
  0.000000000000000   15.00000000000000   0.000000000000000 
  0.000000000000000   0.000000000000000   15.00000000000000 
ATOMIC_SPECIES
   F   18.99800   F_PSEUDO
   O   15.99900   O_PSEUDO
   C   12.01060   C_PSEUDO
ATOMIC_POSITIONS {angstrom}
F   8.071326   5.984002   7.794029
F   6.411133   7.035002   8.740828
F   6.351331   6.595001   6.598528
O   7.353828   9.388298   7.092531
O   9.255626   8.192599   7.341530
C   7.891528   8.311999   7.321427
C   7.165231   6.993100   7.611128
K_POINTS gamma