#************************************************************************************
#*                   Generated by cif2cell 2.1.0 2026-02-12 22:04                   *
#*  T. Bjorkman, Comp. Phys. Commun. 182, 1183-1186 (2011). Please cite generously. *
#*                                                                                  *
#*                              Data obtained from COD                              *
#*                                    None   ()                                     *
#*             Failed to get author information, No journal information             *
#************************************************************************************
&CONTROL
  calculation='scf',
  outdir='.',
  prefix='energyiron-alt',
  pseudo_dir='.',
  verbosity='high',
  tprnfor=.true.,
  tstress=.true.,
/
&SYSTEM
  ibrav = 0
  A =   10.27400
  nat = 25
  ntyp = 5
  ecutwfc=50,
  ecutrho=350,
  input_dft='pbe',
  occupations='smearing',
  smearing='mv',
  degauss=0.005d0,
/
&ELECTRONS
  conv_thr=1d-06,
  mixing_beta=0.7d0,
/
CELL_PARAMETERS {alat}
  1.000000000000000   0.000000000000000   0.000000000000000 
  0.000000000000000   1.000000000000000   0.000000000000000 
  0.000000000000000   0.000000000000000   1.000000000000000 
ATOMIC_SPECIES
   F   18.99800   F.pbe-n-kjpaw_psl.1.0.0.UPF
   C   12.01060   C.pbe-n-kjpaw_psl.1.0.0.UPF
  Fe   55.84500  Fe.pbesol-spn-kjpaw_psl.1.0.0.UPF
   O   15.99900   O.pbe-n-kjpaw_psl.1.0.0.UPF
   H    1.00750   H.pbe-kjpaw_psl.1.0.0.UPF
ATOMIC_POSITIONS {crystal}
Fe   0.301114000000000   0.286982000000000   0.432947000000000 
 F   0.427355000000000   0.739084000000000   0.699231000000000 
 F   0.257879000000000   0.769403000000000   0.572698000000000 
 F   0.242024000000000   0.642072000000000   0.743119000000000 
 F   0.589639000000000   0.583079000000000   0.248744000000000 
 F   0.532037000000000   0.437069000000000   0.100000000000000 
 F   0.400083000000000   0.484363000000000   0.259169000000000 
 F   0.575029000000000   0.345148000000000   0.865018000000000 
 F   0.388958000000000   0.427891000000000   0.802278000000000 
 F   0.391186000000000   0.238792000000000   0.900000000000000 
 O   0.302944000000000   0.471077000000000   0.511369000000000 
 O   0.498623000000000   0.551864000000000   0.549367000000000 
 O   0.482611000000000   0.288062000000000   0.362079000000000 
 O   0.693922000000000   0.354716000000000   0.361661000000000 
 O   0.374951000000000   0.242646000000000   0.601314000000000 
 O   0.587887000000000   0.230597000000000   0.634573000000000 
 C   0.366600000000000   0.562094000000000   0.562673000000000 
 C   0.321292000000000   0.681502000000000   0.646301000000000 
 C   0.572041000000000   0.359553000000000   0.316800000000000 
 C   0.530451000000000   0.469296000000000   0.226251000000000 
 C   0.467301000000000   0.253343000000000   0.680757000000000 
 C   0.457042000000000   0.315072000000000   0.817024000000000 
 H   0.544467000000000   0.626392000000000   0.593411000000000 
 H   0.757976000000000   0.418196000000000   0.326689000000000 
 H   0.659865000000000   0.242938000000000   0.698715000000000 
K_POINTS {automatic}
  5 5 5 0 0 0
