#************************************************************************************
#*                   Generated by cif2cell 2.1.0 2026-01-29 21:26                   *
#*  T. Bjorkman, Comp. Phys. Commun. 182, 1183-1186 (2011). Please cite generously. *
#*                                                                                  *
#*                                    None   ()                                     *
#*            W\"orle, Michael et al., Chemistry of Materials , - (2020)            *
#************************************************************************************
&CONTROL
  calculation='scf',
  outdir='.',
  prefix='energyiron',
  pseudo_dir='.',
  verbosity='high',
  tprnfor=.true.,
  tstress=.true.,
/
&SYSTEM
  ibrav = 0
  A =   13.02830
  nat = 124
  ntyp = 4
  ecutwfc=50,
  ecutrho=340,
  input_dft='pbe',
  occupations='smearing',
  smearing='mv',
  degauss=0.005d0,
/
&ELECTRONS
  conv_thr=1d-06,
  mixing_beta=0.7d0,
/
CELL_PARAMETERS {alat}
  0.866025403784439  -0.500000000000000   0.000000000000000 
  0.000000000000000   1.000000000000000   0.000000000000000 
  0.000000000000000   0.000000000000000   0.671607193570919 
ATOMIC_SPECIES
   O   15.99900   O.pbe-n-kjpaw_psl.1.0.0.UPF
  Fe   55.84500  Fe.pbesol-spn-kjpaw_psl.1.0.0.UPF
   F   18.99800   F.pbe-n-kjpaw_psl.1.0.0.UPF
   C   12.01060   C.pbe-n-kjpaw_psl.1.0.0.UPF
ATOMIC_POSITIONS {crystal}
Fe   0.333333333333333   0.666666666666667   0.498000000000000 
Fe   0.333333333333333   0.666666666666667   0.998000000000000 
Fe   0.666666666666667   0.333333333333333   0.481000000000000 
Fe   0.666666666666667   0.333333333333333   0.981000000000000 
 F   0.204770000000000   0.299040000000000   0.342950000000000 
 F   0.094270000000000   0.299040000000000   0.842950000000000 
 F   0.700960000000000   0.795230000000000   0.842950000000000 
 F   0.204770000000000   0.905730000000000   0.842950000000000 
 F   0.700960000000000   0.905730000000000   0.342950000000000 
 F   0.094270000000000   0.795230000000000   0.342950000000000 
 F   0.368850000000000   0.330850000000000   0.238620000000000 
 F   0.962000000000000   0.330850000000000   0.738620000000000 
 F   0.669150000000000   0.631150000000000   0.738620000000000 
 F   0.368850000000000   0.038000000000000   0.738620000000000 
 F   0.669150000000000   0.038000000000000   0.238620000000000 
 F   0.962000000000000   0.631150000000000   0.238620000000000 
 F   0.221960000000000   0.307530000000000   0.098110000000000 
 F   0.085570000000000   0.307530000000000   0.598110000000000 
 F   0.692470000000000   0.778040000000000   0.598110000000000 
 F   0.221960000000000   0.914430000000000   0.598110000000000 
 F   0.692470000000000   0.914430000000000   0.098110000000000 
 F   0.085570000000000   0.778040000000000   0.098110000000000 
 F   0.162380000000000   0.296110000000000   0.207700000000000 
 F   0.133730000000000   0.296110000000000   0.707700000000000 
 F   0.703890000000000   0.837620000000000   0.707700000000000 
 F   0.162380000000000   0.866270000000000   0.707700000000000 
 F   0.703890000000000   0.866270000000000   0.207700000000000 
 F   0.133730000000000   0.837620000000000   0.207700000000000 
 F   0.302190000000000   0.318060000000000   0.361210000000000 
 F   0.015870000000000   0.318060000000000   0.861210000000000 
 F   0.681940000000000   0.697810000000000   0.861210000000000 
 F   0.302190000000000   0.984130000000000   0.861210000000000 
 F   0.681940000000000   0.984130000000000   0.361210000000000 
 F   0.015870000000000   0.697810000000000   0.361210000000000 
 F   0.327730000000000   0.322610000000000   0.116800000000000 
 F   0.994880000000000   0.322610000000000   0.616800000000000 
 F   0.677390000000000   0.672270000000000   0.616800000000000 
 F   0.327730000000000   0.005120000000000   0.616800000000000 
 F   0.677390000000000   0.005120000000000   0.116800000000000 
 F   0.994880000000000   0.672270000000000   0.116800000000000 
 F   0.613820000000000   0.624880000000000   0.090290000000000 
 F   0.011060000000000   0.624880000000000   0.590290000000000 
 F   0.375120000000000   0.386180000000000   0.590290000000000 
 F   0.613820000000000   0.988940000000000   0.590290000000000 
 F   0.375120000000000   0.988940000000000   0.090290000000000 
 F   0.011060000000000   0.386180000000000   0.090290000000000 
 F   0.774960000000000   0.716830000000000   0.223460000000000 
 F   0.941870000000000   0.716830000000000   0.723460000000000 
 F   0.283170000000000   0.225040000000000   0.723460000000000 
 F   0.774960000000000   0.058130000000000   0.723460000000000 
 F   0.283170000000000   0.058130000000000   0.223460000000000 
 F   0.941870000000000   0.225040000000000   0.223460000000000 
 F   0.603970000000000   0.627160000000000   0.335570000000000 
 F   0.023190000000000   0.627160000000000   0.835570000000000 
 F   0.372840000000000   0.396030000000000   0.835570000000000 
 F   0.603970000000000   0.976810000000000   0.835570000000000 
 F   0.372840000000000   0.976810000000000   0.335570000000000 
 F   0.023190000000000   0.396030000000000   0.335570000000000 
 F   0.553670000000000   0.593960000000000   0.201640000000000 
 F   0.040290000000000   0.593960000000000   0.701640000000000 
 F   0.406040000000000   0.446330000000000   0.701640000000000 
 F   0.553670000000000   0.959710000000000   0.701640000000000 
 F   0.406040000000000   0.959710000000000   0.201640000000000 
 F   0.040290000000000   0.446330000000000   0.201640000000000 
 F   0.708810000000000   0.687560000000000   0.343290000000000 
 F   0.978750000000000   0.687560000000000   0.843290000000000 
 F   0.312440000000000   0.291190000000000   0.843290000000000 
 F   0.708810000000000   0.021250000000000   0.843290000000000 
 F   0.312440000000000   0.021250000000000   0.343290000000000 
 F   0.978750000000000   0.291190000000000   0.343290000000000 
 F   0.727920000000000   0.685790000000000   0.098180000000000 
 F   0.957870000000000   0.685790000000000   0.598180000000000 
 F   0.314210000000000   0.272080000000000   0.598180000000000 
 F   0.727920000000000   0.042130000000000   0.598180000000000 
 F   0.314210000000000   0.042130000000000   0.098180000000000 
 F   0.957870000000000   0.272080000000000   0.098180000000000 
 O   0.343070000000000   0.536780000000000   0.365580000000000 
 O   0.193710000000000   0.536780000000000   0.865580000000000 
 O   0.463220000000000   0.656930000000000   0.865580000000000 
 O   0.343070000000000   0.806290000000000   0.865580000000000 
 O   0.463220000000000   0.806290000000000   0.365580000000000 
 O   0.193710000000000   0.656930000000000   0.365580000000000 
 O   0.361190000000000   0.545730000000000   0.107400000000000 
 O   0.184540000000000   0.545730000000000   0.607400000000000 
 O   0.454270000000000   0.638810000000000   0.607400000000000 
 O   0.361190000000000   0.815460000000000   0.607400000000000 
 O   0.454270000000000   0.815460000000000   0.107400000000000 
 O   0.184540000000000   0.638810000000000   0.107400000000000 
 O   0.688710000000000   0.465510000000000   0.101280000000000 
 O   0.776800000000000   0.465510000000000   0.601280000000000 
 O   0.534490000000000   0.311290000000000   0.601280000000000 
 O   0.688710000000000   0.223200000000000   0.601280000000000 
 O   0.534490000000000   0.223200000000000   0.101280000000000 
 O   0.776800000000000   0.311290000000000   0.101280000000000 
 O   0.678320000000000   0.467910000000000   0.359930000000000 
 O   0.789590000000000   0.467910000000000   0.859930000000000 
 O   0.532090000000000   0.321680000000000   0.859930000000000 
 O   0.678320000000000   0.210410000000000   0.859930000000000 
 O   0.532090000000000   0.210410000000000   0.359930000000000 
 O   0.789590000000000   0.321680000000000   0.359930000000000 
 C   0.281260000000000   0.358830000000000   0.228390000000000 
 C   0.077570000000000   0.358830000000000   0.728390000000000 
 C   0.641170000000000   0.718740000000000   0.728390000000000 
 C   0.281260000000000   0.922430000000000   0.728390000000000 
 C   0.641170000000000   0.922430000000000   0.228390000000000 
 C   0.077570000000000   0.718740000000000   0.228390000000000 
 C   0.334170000000000   0.497690000000000   0.234430000000000 
 C   0.163520000000000   0.497690000000000   0.734430000000000 
 C   0.502310000000000   0.665830000000000   0.734430000000000 
 C   0.334170000000000   0.836480000000000   0.734430000000000 
 C   0.502310000000000   0.836480000000000   0.234430000000000 
 C   0.163520000000000   0.665830000000000   0.234430000000000 
 C   0.666380000000000   0.616650000000000   0.219220000000000 
 C   0.950270000000000   0.616650000000000   0.719220000000000 
 C   0.383350000000000   0.333620000000000   0.719220000000000 
 C   0.666380000000000   0.049730000000000   0.719220000000000 
 C   0.383350000000000   0.049730000000000   0.219220000000000 
 C   0.950270000000000   0.333620000000000   0.219220000000000 
 C   0.678260000000000   0.501710000000000   0.227830000000000 
 C   0.823450000000000   0.501710000000000   0.727830000000000 
 C   0.498290000000000   0.321740000000000   0.727830000000000 
 C   0.678260000000000   0.176550000000000   0.727830000000000 
 C   0.498290000000000   0.176550000000000   0.227830000000000 
 C   0.823450000000000   0.321740000000000   0.227830000000000 
K_POINTS {automatic}
  2 2 2 0 0 0
