#************************************************************************************
#*                   Generated by cif2cell 2.1.0 2026-01-28 6:26                    *
#*  T. Bjorkman, Comp. Phys. Commun. 182, 1183-1186 (2011). Please cite generously. *
#*                                                                                  *
#*               Data obtained from CSD. Reference number : BULMAW10                *
#*                    None   (Trifluoroacetic acid monohydrate)                     *
#*                  Failed to get author information,  , - (1984)                   *
#************************************************************************************
&CONTROL
  calculation='scf',
  outdir='.',
  prefix='energybasic',
  pseudo_dir='.',
  verbosity='high',
  tprnfor=.true.,
  tstress=.true.,
/
&SYSTEM
  ibrav = 0
  A =   10.42000
  nat = 88
  ntyp = 4
  ecutwfc=50,
  ecutrho=350,
  input_dft='pbe',
  occupations='smearing',
  smearing='mv',
  degauss=0.005d0,
/
&ELECTRONS
  conv_thr=1d-06,
  mixing_beta=0.7d0,
/
CELL_PARAMETERS {alat}
  1.000000000000000   0.000000000000000   0.000000000000000 
  0.000000000000000   1.000000000000000   0.000000000000000 
  0.500000000000000   0.500000000000000   0.869481765834933 
ATOMIC_SPECIES
   F   18.99800   F.pbe-n-kjpaw_psl.1.0.0.UPF
   C   12.01060   C.pbe-n-kjpaw_psl.1.0.0.UPF
   H    1.00750   H.pbe-kjpaw_psl.1.0.0.UPF
   O   15.99900   O.pbe-n-kjpaw_psl.1.0.0.UPF
ATOMIC_POSITIONS {crystal}
F   0.391700000000000   0.994100000000000   0.879200000000000 
F   0.358300000000000   0.123300000000000   0.620800000000000 
F   0.876700000000000   0.979100000000000   0.379200000000000 
F   0.005900000000000   0.270900000000000   0.120800000000000 
F   0.873300000000000   0.608300000000000   0.120800000000000 
F   0.729100000000000   0.126700000000000   0.879200000000000 
F   0.020900000000000   0.255900000000000   0.620800000000000 
F   0.744100000000000   0.641700000000000   0.379200000000000 
F   0.411200000000000   0.173500000000000   0.915600000000000 
F   0.338800000000000   0.339100000000000   0.584400000000000 
F   0.660900000000000   0.923200000000000   0.415600000000000 
F   0.826500000000000   0.326800000000000   0.084400000000000 
F   0.089100000000000   0.588800000000000   0.084400000000000 
F   0.673200000000000   0.910900000000000   0.915600000000000 
F   0.076800000000000   0.076500000000000   0.584400000000000 
F   0.923500000000000   0.661200000000000   0.415600000000000 
F   0.212600000000000   0.092500000000000   0.933400000000000 
F   0.537400000000000   0.275900000000000   0.566600000000000 
F   0.724100000000000   0.104000000000000   0.433400000000000 
F   0.907500000000000   0.146000000000000   0.066600000000000 
F   0.025900000000000   0.787400000000000   0.066600000000000 
F   0.854000000000000   0.974100000000000   0.933400000000000 
F   0.896000000000000   0.157500000000000   0.566600000000000 
F   0.842500000000000   0.462600000000000   0.433400000000000 
O   0.189300000000000   0.003100000000000   0.202000000000000 
O   0.560700000000000   0.455100000000000   0.298000000000000 
O   0.544900000000000   0.858700000000000   0.702000000000000 
O   0.996900000000000   0.391300000000000   0.798000000000000 
O   0.205100000000000   0.810700000000000   0.798000000000000 
O   0.608700000000000   0.794900000000000   0.202000000000000 
O   0.141300000000000   0.246900000000000   0.298000000000000 
O   0.753100000000000   0.439300000000000   0.702000000000000 
O   0.285300000000000   0.822000000000000   0.166400000000000 
O   0.464700000000000   0.238400000000000   0.333600000000000 
O   0.761466666666667   0.798166666666667   0.666666666666667 
O   0.178000000000000   0.451700000000000   0.833600000000000 
O   0.988400000000000   0.714700000000000   0.833600000000000 
O   0.548300000000000   0.011600000000000   0.166400000000000 
O   0.201700000000000   0.428000000000000   0.333600000000000 
O   0.571866666666667   0.535166666666667   0.666666666666667 
O   0.082000000000000   0.829700000000000   0.484400000000000 
O   0.668000000000000   0.564100000000000   0.015600000000000 
O   0.435900000000000   0.683600000000000   0.984400000000000 
O   0.170300000000000   0.566400000000000   0.515600000000000 
O   0.314100000000000   0.918000000000000   0.515600000000000 
O   0.433600000000000   0.685900000000000   0.484400000000000 
O   0.316400000000000   0.420300000000000   0.015600000000000 
O   0.579700000000000   0.332000000000000   0.984400000000000 
C   0.321200000000000   0.051900000000000   0.959600000000000 
C   0.428800000000000   0.261500000000000   0.540400000000000 
C   0.738500000000000   0.969200000000000   0.459600000000000 
C   0.948100000000000   0.280800000000000   0.040400000000000 
C   0.011500000000000   0.678800000000000   0.040400000000000 
C   0.719200000000000   0.988500000000000   0.959600000000000 
C   0.030800000000000   0.198100000000000   0.540400000000000 
C   0.801900000000000   0.571200000000000   0.459600000000000 
C   0.261500000000000   0.942300000000000   0.125200000000000 
C   0.488500000000000   0.317500000000000   0.374800000000000 
C   0.682500000000000   0.863300000000000   0.625200000000000 
C   0.057700000000000   0.386700000000000   0.874800000000000 
C   0.067500000000000   0.738500000000000   0.874800000000000 
C   0.613300000000000   0.932500000000000   0.125200000000000 
C   0.136700000000000   0.307700000000000   0.374800000000000 
C   0.692300000000000   0.511500000000000   0.625200000000000 
H   0.157000000000000   0.930000000000000   0.304000000000000 
H   0.593000000000000   0.484000000000000   0.196000000000000 
H   0.516000000000000   0.789000000000000   0.804000000000000 
H   0.070000000000000   0.461000000000000   0.696000000000000 
H   0.234000000000000   0.843000000000000   0.696000000000000 
H   0.539000000000000   0.766000000000000   0.304000000000000 
H   0.211000000000000   0.320000000000000   0.196000000000000 
H   0.680000000000000   0.407000000000000   0.804000000000000 
H   0.999000000000000   0.830000000000000   0.538000000000000 
H   0.751000000000000   0.618000000000000   0.962000000000000 
H   0.382000000000000   0.713000000000000   0.038000000000000 
H   0.170000000000000   0.537000000000000   0.462000000000000 
H   0.368000000000000   0.001000000000000   0.462000000000000 
H   0.463000000000000   0.632000000000000   0.538000000000000 
H   0.287000000000000   0.420000000000000   0.962000000000000 
H   0.580000000000000   0.249000000000000   0.038000000000000 
H   0.122000000000000   0.862000000000000   0.510000000000000 
H   0.628000000000000   0.622000000000000   0.990000000000000 
H   0.378000000000000   0.618000000000000   0.010000000000000 
H   0.138000000000000   0.632000000000000   0.490000000000000 
H   0.372000000000000   0.878000000000000   0.490000000000000 
H   0.368000000000000   0.628000000000000   0.510000000000000 
H   0.382000000000000   0.388000000000000   0.990000000000000 
H   0.612000000000000   0.372000000000000   0.010000000000000 
K_POINTS {automatic}
  3 3 3 0 0 0
