#************************************************************************************
#*                   Generated by cif2cell 2.1.0 2026-02-12 4:45                    *
#*  T. Bjorkman, Comp. Phys. Commun. 182, 1183-1186 (2011). Please cite generously. *
#*                                                                                  *
#*                              Data obtained from COD                              *
#*                                    None   ()                                     *
#*             Failed to get author information, No journal information             *
#************************************************************************************
&CONTROL
  calculation='scf',
  outdir='.',
  prefix='energybasic-alt',
  pseudo_dir='.',
  verbosity='high',
  tprnfor=.true.,
  tstress=.true.,
/
&SYSTEM
  ibrav = 0
  A =    4.45913
  nat = 8
  ntyp = 4
  ecutwfc=50,
  ecutrho=350,
  input_dft='pbe',
  occupations='smearing',
  smearing='mv',
  degauss=0.005d0,
/
&ELECTRONS
  conv_thr=1d-06,
  mixing_beta=0.7d0,
/
CELL_PARAMETERS {alat}
  1.000000000000000   0.000000000000000   0.000000000000000 
  0.000000000000000   1.000000000000000   0.000000000000000 
  0.000000000000000   0.000000000000000   1.000000000000000 
ATOMIC_SPECIES
   C   12.01060   C.pbe-n-kjpaw_psl.1.0.0.UPF
   H    1.00750   H.pbe-kjpaw_psl.1.0.0.UPF
   O   15.99900   O.pbe-n-kjpaw_psl.1.0.0.UPF
   F   18.99800   F.pbe-n-kjpaw_psl.1.0.0.UPF
ATOMIC_POSITIONS {crystal}
F   0.115945000000000   0.765063000000000   0.495122000000000 
F   0.100000000000000   0.344824000000000   0.744342000000000 
F   0.105988000000000   0.338926000000000   0.255658000000000 
O   0.680181000000000   0.744543000000000   0.499630000000000 
O   0.701732000000000   0.234937000000000   0.499697000000000 
C   0.221010000000000   0.479492000000000   0.499832000000000 
C   0.555784000000000   0.467180000000000   0.502500000000000 
H   0.900000000000000   0.736022000000000   0.497455000000000 
K_POINTS {automatic}
  5 5 5 0 0 0
