#************************************************************************************
#*                   Generated by cif2cell 2.1.0 2026-04-16 21:14                   *
#*  T. Bjorkman, Comp. Phys. Commun. 182, 1183-1186 (2011). Please cite generously. *
#*                                                                                  *
#*                              Data obtained from COD                              *
#*                                    Fe36   ()                                     *
#*             Failed to get author information, No journal information             *
#************************************************************************************
&CONTROL
  calculation='relax',
  outdir='./Outputs',
  prefix='irontfa_newer',
  pseudo_dir='./Pseudopotentials',
  verbosity='low',
  tefield=.true.,
  dipfield=.true.,
  tprnfor=.true.,
  tstress=.true.,
  forc_conv_thr=7.7D-4,
  etot_conv_thr=7.3D-7
/
&SYSTEM
  ibrav = 0
  A =    8.61000
  nat = 36
  ntyp = 1
  ecutwfc=60,
  ecutrho=480,
  input_dft='pbe',
  occupations='smearing',
  smearing='mv',
  degauss=0.01,
  nspin=2,
  vdw_corr='grimme-d3',
  edir=3,
  emaxpos=0.9,
  eopreg=0.1,
  starting_magnetization(1)=0.3
/
&ELECTRONS
  conv_thr=1d-07,
  mixing_beta=0.3,
  mixing_mode='local-TF'
/
&IONS
  ion_dynamics='bfgs',
  wfc_extrapolation='second_order',
  pot_extrapolation='second_order',
/
CELL_PARAMETERS {alat}
  1.000000000000000   0.000000000000000   0.000000000000000 
  0.500000000000000   0.707106781186548   0.000000000000000 
  0.000000000000000   0.000000000000000   2.449267059932192 
ATOMIC_SPECIES
  Fe   55.84500  Fe.UPF
ATOMIC_POSITIONS {crystal}
Fe   0.833333333333333   0.333333333333333   0.355649309796759 0 0 0
Fe   0.166666666666667   0.333333333333333   0.355649309796759 0 0 0
Fe   0.500000000000000   0.333333333333333   0.355649309796759 0 0 0
Fe   0.833333333333333   0.666666666666667   0.355649309796759 0 0 0
Fe   0.166666666666667   0.666666666666667   0.355649309796759 0 0 0
Fe   0.500000000000000   0.666666666666667   0.355649309796759 0 0 0
Fe   0.833333333333333   0.000000000000000   0.355649309796759 0 0 0
Fe   0.166666666666667   0.000000000000000   0.355649309796759 0 0 0
Fe   0.500000000000000   0.000000000000000   0.355649309796759 0 0 0
Fe   0.000000000000000   0.000000000000000   0.451883103265586 0 0 0
Fe   0.333333333333333   0.000000000000000   0.451883103265586 0 0 0
Fe   0.666666666666667   0.000000000000000   0.451883103265586 0 0 0
Fe   0.000000000000000   0.333333333333333   0.451883103265586 0 0 0
Fe   0.333333333333333   0.333333333333333   0.451883103265586 0 0 0
Fe   0.666666666666667   0.333333333333333   0.451883103265586 0 0 0
Fe   0.000000000000000   0.666666666666667   0.451883103265586 0 0 0
Fe   0.333333333333333   0.666666666666667   0.451883103265586 0 0 0
Fe   0.666666666666667   0.666666666666667   0.451883103265586 0 0 0
Fe   0.833333333333333   0.333333333333333   0.548116896734413 1 1 1 
Fe   0.166666666666667   0.333333333333333   0.548116896734413 1 1 1
Fe   0.500000000000000   0.333333333333333   0.548116896734413 1 1 1
Fe   0.833333333333333   0.666666666666667   0.548116896734413 1 1 1 
Fe   0.166666666666667   0.666666666666667   0.548116896734413 1 1 1 
Fe   0.500000000000000   0.666666666666667   0.548116896734413 1 1 1
Fe   0.833333333333333   0.000000000000000   0.548116896734413 1 1 1 
Fe   0.166666666666667   0.000000000000000   0.548116896734413 1 1 1
Fe   0.500000000000000   0.000000000000000   0.548116896734413 1 1 1
Fe   0.000000000000000   0.000000000000000   0.644350690203241 1 1 1
Fe   0.333333333333333   0.000000000000000   0.644350690203241 1 1 1
Fe   0.666666666666667   0.000000000000000   0.644350690203241 1 1 1
Fe   0.000000000000000   0.333333333333333   0.644350690203241 1 1 1
Fe   0.333333333333333   0.333333333333333   0.644350690203241 1 1 1
Fe   0.666666666666667   0.333333333333333   0.644350690203241 1 1 1
Fe   0.000000000000000   0.666666666666667   0.644350690203241 1 1 1
Fe   0.333333333333333   0.666666666666667   0.644350690203241 1 1 1
Fe   0.666666666666667   0.666666666666667   0.644350690203241 1 1 1
 K_POINTS {automatic}
  5 5 1 0 0 0
